set nodes:= 1 2 3 4 5 6 7 8 ;

set arcs:=
(1,2) # A
(1,3) # B
(2,4) # C
(2,5) # D
(3,4) # E
(3,5) # F
(5,6) # G
(4,7) # H
(6,7) # I
(7,8); # J

param dur:=
1 2 10 # A
1 3 20 # B
2 4 30 # C
2 5 20 # D
3 4 10 # E
3 5 20 # F
5 6 40 # G
4 7 20 # H
6 7 20 # I
7 8 0; # J


